Set parameter Username
Academic license - for non-commercial use only - expires 2024-02-22
Warning: Gurobi version mismatch between Python 9.5.0 and C library 9.5.2
Set parameter TimeLimit to value 3600
Set parameter MIPGap to value 1e-06
Set parameter Threads to value 1
Gurobi Optimizer version 9.5.2 build v9.5.2rc0 (linux64)
Thread count: 4 physical cores, 4 logical processors, using up to 1 threads
Optimize a model with 468 rows, 4290 columns and 20826 nonzeros
Model fingerprint: 0x20674611
Variable types: 4186 continuous, 104 integer (104 binary)
Coefficient statistics:
  Matrix range     [1e+00, 5e+03]
  Objective range  [6e+00, 1e+05]
  Bounds range     [1e+00, 1e+00]
  RHS range        [1e+00, 1e+02]
Presolve removed 103 rows and 1 columns
Presolve time: 0.03s
Presolved: 365 rows, 4289 columns, 18016 nonzeros
Variable types: 4186 continuous, 103 integer (103 binary)
Found heuristic solution: objective 114414.00000

Root relaxation: objective 1.831683e+04, 1236 iterations, 0.04 seconds (0.04 work units)

    Nodes    |    Current Node    |     Objective Bounds      |     Work
 Expl Unexpl |  Obj  Depth IntInf | Incumbent    BestBd   Gap | It/Node Time

     0     0 18316.8305    0   61 114414.000 18316.8305  84.0%     -    0s
H    0     0                    45428.870736 18316.8305  59.7%     -    0s
H    0     0                    40059.269740 18316.8305  54.3%     -    0s
H    0     0                    38648.082180 18316.8305  52.6%     -    0s
     0     0 18631.4154    0   55 38648.0822 18631.4154  51.8%     -    0s
H    0     0                    34569.229622 18631.4154  46.1%     -    0s
     0     0 18637.9427    0   54 34569.2296 18637.9427  46.1%     -    0s
     0     0 18638.4297    0   54 34569.2296 18638.4297  46.1%     -    0s
     0     0 18986.8100    0   59 34569.2296 18986.8100  45.1%     -    0s
     0     0 19003.9588    0   59 34569.2296 19003.9588  45.0%     -    0s
     0     0 19006.6855    0   59 34569.2296 19006.6855  45.0%     -    0s
     0     0 19008.9568    0   60 34569.2296 19008.9568  45.0%     -    0s
     0     0 19009.6239    0   60 34569.2296 19009.6239  45.0%     -    0s
     0     0 19391.3076    0   62 34569.2296 19391.3076  43.9%     -    0s
     0     0 19408.6126    0   60 34569.2296 19408.6126  43.9%     -    0s
     0     0 19410.4268    0   62 34569.2296 19410.4268  43.9%     -    0s
     0     0 19410.9126    0   63 34569.2296 19410.9126  43.8%     -    0s
     0     0 19411.0192    0   62 34569.2296 19411.0192  43.8%     -    0s
     0     0 19607.3826    0   67 34569.2296 19607.3826  43.3%     -    0s
     0     0 19623.2388    0   68 34569.2296 19623.2388  43.2%     -    0s
     0     0 19623.8440    0   68 34569.2296 19623.8440  43.2%     -    0s
     0     0 19623.9299    0   68 34569.2296 19623.9299  43.2%     -    0s
     0     0 19797.3707    0   71 34569.2296 19797.3707  42.7%     -    0s
     0     0 19805.9106    0   73 34569.2296 19805.9106  42.7%     -    0s
     0     0 19809.5533    0   72 34569.2296 19809.5533  42.7%     -    0s
     0     0 19810.3434    0   72 34569.2296 19810.3434  42.7%     -    0s
     0     0 19810.6291    0   72 34569.2296 19810.6291  42.7%     -    0s
     0     0 19874.7174    0   71 34569.2296 19874.7174  42.5%     -    0s
     0     0 19879.5011    0   71 34569.2296 19879.5011  42.5%     -    0s
     0     0 19880.0339    0   72 34569.2296 19880.0339  42.5%     -    0s
     0     0 19932.9457    0   70 34569.2296 19932.9457  42.3%     -    0s
     0     0 19937.7651    0   75 34569.2296 19937.7651  42.3%     -    0s
     0     0 19939.1421    0   73 34569.2296 19939.1421  42.3%     -    0s
     0     0 19939.2865    0   72 34569.2296 19939.2865  42.3%     -    0s
     0     0 19987.1574    0   74 34569.2296 19987.1574  42.2%     -    0s
H    0     0                    31402.200000 19987.1574  36.4%     -    0s
     0     0 19992.1645    0   75 31402.2000 19992.1645  36.3%     -    0s
     0     0 19994.6260    0   77 31402.2000 19994.6260  36.3%     -    0s
     0     0 19995.2918    0   76 31402.2000 19995.2918  36.3%     -    0s
     0     0 20041.4358    0   74 31402.2000 20041.4358  36.2%     -    1s
     0     0 20052.7474    0   74 31402.2000 20052.7474  36.1%     -    1s
     0     0 20057.5664    0   75 31402.2000 20057.5664  36.1%     -    1s
     0     0 20058.3820    0   75 31402.2000 20058.3820  36.1%     -    1s
     0     0 20095.2300    0   71 31402.2000 20095.2300  36.0%     -    1s
     0     0 20098.8436    0   72 31402.2000 20098.8436  36.0%     -    1s
     0     0 20100.2926    0   74 31402.2000 20100.2926  36.0%     -    1s
     0     0 20100.3820    0   74 31402.2000 20100.3820  36.0%     -    1s
     0     0 20116.3284    0   75 31402.2000 20116.3284  35.9%     -    1s
     0     0 20120.2969    0   77 31402.2000 20120.2969  35.9%     -    1s
     0     0 20121.9720    0   76 31402.2000 20121.9720  35.9%     -    1s
     0     0 20122.3340    0   76 31402.2000 20122.3340  35.9%     -    1s
     0     0 20156.6018    0   74 31402.2000 20156.6018  35.8%     -    1s
     0     0 20163.6944    0   73 31402.2000 20163.6944  35.8%     -    1s
     0     0 20165.4827    0   75 31402.2000 20165.4827  35.8%     -    1s
     0     0 20165.8759    0   75 31402.2000 20165.8759  35.8%     -    1s
     0     0 20178.3235    0   73 31402.2000 20178.3235  35.7%     -    1s
     0     0 20181.9782    0   73 31402.2000 20181.9782  35.7%     -    1s
     0     0 20183.0101    0   72 31402.2000 20183.0101  35.7%     -    1s
     0     0 20190.2221    0   73 31402.2000 20190.2221  35.7%     -    1s
     0     0 20190.2221    0   73 31402.2000 20190.2221  35.7%     -    1s
H    0     0                    28050.200000 20190.2221  28.0%     -    1s
     0     2 20190.7702    0   73 28050.2000 20190.7702  28.0%     -    1s
H   26    26                    27710.321610 20340.1418  26.6%  35.8    2s
H   52    52                    27431.908726 20340.1418  25.9%  35.4    2s
H   78    77                    27207.559889 20340.1418  25.2%  28.5    2s
H  174   166                    27088.276191 20366.9462  24.8%  25.4    2s
H  178   159                    25502.581849 20366.9462  20.1%  25.2    2s
H  181   162                    25472.581849 20366.9462  20.0%  24.9    2s
H  183   164                    25442.581849 20366.9462  19.9%  24.7    2s
H  185   166                    25203.910477 20366.9462  19.2%  24.4    2s
H  186   167                    25167.910477 20366.9462  19.1%  24.3    2s
H  188   169                    24867.290818 20366.9462  18.1%  24.2    2s
H  189   169                    24812.290818 20366.9462  17.9%  24.1    2s
H  191   169                    24749.678028 20366.9462  17.7%  23.9    2s
H  193   171                    24704.537118 20366.9462  17.6%  23.8    2s
H  195   173                    24685.282257 20366.9462  17.5%  23.6    2s
H  196   173                    24605.282257 20366.9462  17.2%  23.5    2s
H  197   174                    24585.282257 20366.9462  17.2%  23.4    2s
H  198   175                    24564.282257 20366.9462  17.1%  23.3    2s
H  199   176                    24535.400000 20366.9462  17.0%  23.2    2s
H  200   175                    24461.400000 20366.9462  16.7%  23.1    2s
H  201   176                    24458.400000 20366.9462  16.7%  22.9    2s
*  202   171              70    24276.400000 20366.9462  16.1%  22.9    2s
H  277   229                    24160.690152 20386.4273  15.6%  22.1    2s
H  278   225                    24035.647973 20386.4273  15.2%  22.0    2s
H  279   221                    23911.647973 20386.4273  14.7%  22.0    2s
H  280   221                    23857.800000 20386.4273  14.6%  21.9    2s
H  281   221                    23855.800000 20386.4273  14.5%  21.8    2s
*  284   219              67    23817.800000 20386.4273  14.4%  21.7    2s
H  352   278                    23748.186628 20398.7876  14.1%  22.3    2s
H  353   278                    23731.340035 20398.7876  14.0%  22.3    2s
H  354   275                    23651.674532 20398.7876  13.8%  22.3    2s
H  355   274                    23623.674532 20398.7876  13.7%  22.3    2s
H  363   277                    23591.349745 20398.7876  13.5%  22.0    2s
H  365   272                    23513.999318 20398.7876  13.2%  22.1    2s
H  369   256                    23290.219958 20398.7876  12.4%  22.0    2s
H  371   257                    23255.219958 20398.7876  12.3%  21.9    2s
H  375   246                    23092.638088 20398.7876  11.7%  21.7    2s
H  379   242                    23036.790115 20398.7876  11.5%  21.5    2s
H  380   242                    23030.800000 20398.7876  11.4%  21.4    2s
H  505   317                    22922.790115 20442.8192  10.8%  22.4    2s
*  507   314              61    22916.800000 20442.8192  10.8%  22.3    2s
H  543   318                    22874.800000 21981.8051  3.90%  21.3    4s
H  555   309                    22637.800000 22087.7013  2.43%  20.8    5s
H  585   313                    22637.799978 22138.1888  2.21%  29.7    6s
H  603   310                    22637.799920 22167.7361  2.08%  32.5    7s
  2169   827     cutoff   55      22637.7999 22368.7764  1.19%  18.4   10s
  6289  2087 22615.2800   50   26 22637.7999 22463.3783  0.77%  14.6   15s
 10202  2514 22602.5906   62   11 22637.7999 22510.6447  0.56%  14.3   23s
 11068  2486     cutoff   56      22637.7999 22518.2733  0.53%  14.6   25s
 14155  1840     cutoff   54      22637.7999 22559.0175  0.35%  16.6   30s

Cutting planes:
  Gomory: 11
  Cover: 1
  Implied bound: 46
  Projected implied bound: 24
  MIR: 66
  Flow cover: 52
  Relax-and-lift: 11

Explored 17189 nodes (308396 simplex iterations) in 34.40 seconds (31.98 work units)
Thread count was 1 (of 4 available processors)

Solution count 10: 22637.8 22874.8 22916.8 ... 24160.7

Optimal solution found (tolerance 1.00e-06)
Best objective 2.263779991962e+04, best bound 2.263779991962e+04, gap 0.0000%
Obj: 22637.8
